Read MPS format model from file dat/rmp/4node-base_16384_25.mps
Reading time = 1.28 seconds
: 16444 rows, 95792 columns, 3565486 nonzeros
Gurobi Optimizer version 9.0.0 build v9.0.0rc2 (linux64)
Optimize a model with 16444 rows, 95792 columns and 3565486 nonzeros
Model fingerprint: 0xdce81393
Coefficient statistics:
  Matrix range     [4e-04, 2e+01]
  Objective range  [4e-03, 1e+04]
  Bounds range     [0e+00, 0e+00]
  RHS range        [1e+00, 8e+01]
Ordering time: 0.02s

Barrier statistics:
 AA' NZ     : 8.399e+05
 Factor NZ  : 1.042e+06 (roughly 50 MBytes of memory)
 Factor Ops : 6.726e+07 (less than 1 second per iteration)
 Threads    : 1

                  Objective                Residual
Iter       Primal          Dual         Primal    Dual     Compl     Time
   0   2.04944958e+07  0.00000000e+00  5.88e+02 2.40e+02  4.30e+04     1s
   1   3.35824843e+05 -8.77615662e+07  8.70e+00 9.39e+02  1.67e+03     1s
   2   4.95149012e+03 -2.31144353e+07  2.76e-03 1.10e+01  2.43e+02     1s
   3   8.55680346e+02 -4.38702003e+06  1.38e-04 1.63e+00  4.61e+01     1s
   4  -1.64086408e+02 -1.73016396e+05  3.84e-06 5.47e-02  1.81e+00     2s
   5  -2.76118386e+02 -7.13722771e+03  6.97e-07 1.68e-03  7.19e-02     2s
   6  -3.21358418e+02 -7.86335842e+02  1.08e-08 6.99e-05  4.87e-03     2s
   7  -3.53618531e+02 -6.32063225e+02  1.12e-08 3.27e-05  2.91e-03     2s
   8  -3.78170529e+02 -4.80204653e+02  1.23e-07 4.46e-06  1.07e-03     3s
   9  -3.92477912e+02 -4.57703066e+02  4.03e-07 7.36e-07  6.82e-04     3s
  10  -4.00508748e+02 -4.46614077e+02  4.94e-07 3.71e-07  4.82e-04     3s
  11  -4.05823999e+02 -4.38911648e+02  5.77e-07 1.47e-07  3.46e-04     3s
  12  -4.10872941e+02 -4.30590927e+02  7.06e-07 5.46e-08  2.06e-04     4s
  13  -4.20511357e+02 -4.26096831e+02  3.81e-06 5.07e-09  5.83e-05     4s
  14  -4.23701586e+02 -4.25113168e+02  1.25e-06 7.63e-10  1.47e-05     5s
  15  -4.23703261e+02 -4.24981807e+02  1.89e-06 4.86e-10  1.33e-05     5s
  16  -4.23703720e+02 -4.24837959e+02  1.75e-06 1.28e-10  1.18e-05     5s
  17  -4.23704998e+02 -4.24818298e+02  3.11e-06 8.54e-11  1.16e-05     6s
  18  -4.23709217e+02 -4.24814213e+02  4.68e-06 1.22e-10  1.15e-05     6s
  19  -4.23709718e+02 -4.24794288e+02  4.85e-06 6.35e-11  1.13e-05     7s
  20  -4.23709816e+02 -4.24793318e+02  1.61e-05 6.15e-11  1.13e-05     7s
  21  -4.23714015e+02 -4.24789063e+02  1.54e-05 1.43e-10  1.12e-05     7s
  22  -4.23728012e+02 -4.24776793e+02  2.67e-05 9.82e-11  1.10e-05     8s
  23  -4.23729994e+02 -4.24775386e+02  2.03e-05 3.98e-11  1.09e-05     8s
  24  -4.23734532e+02 -4.24774013e+02  4.13e-05 6.51e-11  1.09e-05     9s
  25  -4.23754357e+02 -4.24772052e+02  9.90e-05 4.03e-11  1.06e-05     9s
  26  -4.23763077e+02 -4.24771675e+02  5.20e-05 2.64e-11  1.05e-05     9s
  27  -4.23776418e+02 -4.24770621e+02  6.46e-05 3.22e-11  1.04e-05    10s
  28  -4.23788466e+02 -4.24770019e+02  7.20e-05 2.34e-11  1.03e-05    10s
  29  -4.23819736e+02 -4.24769216e+02  1.12e-04 8.53e-11  9.93e-06    10s
  30  -4.23826976e+02 -4.24769436e+02  1.22e-04 4.07e-11  9.85e-06    11s
  31  -4.23880632e+02 -4.24768363e+02  2.70e-04 3.77e-11  9.31e-06    11s
  32  -4.23934832e+02 -4.24767132e+02  3.74e-04 4.64e-11  8.71e-06    11s
  33  -4.24122355e+02 -4.24768129e+02  8.75e-04 7.03e-11  6.76e-06    12s
  34  -4.24177238e+02 -4.24767775e+02  9.17e-04 6.16e-11  6.19e-06    12s
  35  -4.24248205e+02 -4.24768089e+02  1.80e-03 3.72e-11  5.52e-06    12s
  36  -4.24510447e+02 -4.24770724e+02  1.15e-03 1.46e-11  2.82e-06    13s
  37  -4.24615578e+02 -4.24769577e+02  2.13e-03 1.46e-11  1.62e-06    13s
  38  -4.24632481e+02 -4.24767913e+02  1.78e-03 2.91e-11  1.43e-06    13s
  39  -4.24621018e+02 -4.24767798e+02  2.54e-03 2.91e-11  1.38e-06    13s
  40  -4.24668271e+02 -4.24765239e+02  2.46e-03 1.46e-11  8.58e-07    14s
  41  -4.24672677e+02 -4.24765239e+02  2.33e-03 1.46e-11  8.27e-07    14s
  42  -4.24708044e+02 -4.24765175e+02  2.07e-03 1.46e-11  5.02e-07    14s
  43  -4.24715022e+02 -4.24765103e+02  1.60e-03 1.46e-11  4.36e-07    14s
  44  -4.24755217e+02 -4.24764655e+02  1.17e-03 1.46e-11  1.62e-07    15s
  45  -4.24761993e+02 -4.24764350e+02  9.73e-04 1.46e-11  1.28e-07    15s
  46  -4.24758855e+02 -4.24764346e+02  8.06e-04 1.46e-11  1.16e-07    15s
  47  -4.24759708e+02 -4.24764233e+02  8.39e-04 1.46e-11  9.73e-08    16s
  48  -4.24763035e+02 -4.24764220e+02  8.86e-04 1.46e-11  8.60e-08    16s
  49  -4.24760704e+02 -4.24764156e+02  8.61e-04 1.46e-11  7.43e-08    16s
  50  -4.24763163e+02 -4.24764154e+02  8.95e-04 1.46e-11  2.86e-08    17s
  51  -4.24763742e+02 -4.24764154e+02  8.40e-04 1.46e-11  2.26e-08    17s
  52  -4.24763820e+02 -4.24764154e+02  8.44e-04 1.46e-11  2.22e-08    18s
  53  -4.24765620e+02 -4.24764151e+02  8.44e-04 1.46e-11  2.02e-08    18s
  54  -4.24769167e+02 -4.24764128e+02  1.03e-03 2.91e-11  5.78e-09    19s
  55  -4.24768713e+02 -4.24764110e+02  9.19e-04 2.91e-11  5.25e-09    19s
  56  -4.24769135e+02 -4.24764120e+02  1.48e-03 1.46e-11  2.76e-09    19s
  57  -4.24770422e+02 -4.24764037e+02  9.62e-04 1.46e-11  1.92e-09    20s
  58  -4.24767034e+02 -4.24764008e+02  8.56e-04 1.46e-11  1.30e-09    20s
  59  -4.24766926e+02 -4.24763910e+02  8.16e-04 1.46e-11  1.24e-09    20s
  60  -4.24767322e+02 -4.24764036e+02  8.94e-04 1.46e-11  1.09e-09    21s
  61  -4.24766741e+02 -4.24764040e+02  9.31e-04 1.46e-11  1.05e-09    21s
  62  -4.24763629e+02 -4.24763971e+02  8.57e-04 1.46e-11  9.79e-10    21s
  63  -4.24766286e+02 -4.24763962e+02  1.04e-03 1.46e-11  7.51e-10    22s
  64  -4.24767502e+02 -4.24764001e+02  1.07e-03 1.46e-11  8.67e-10    22s
  65  -4.24765428e+02 -4.24763952e+02  5.25e-04 2.91e-11  5.38e-10    23s
  66  -4.24766489e+02 -4.24763951e+02  7.63e-04 1.46e-11  4.20e-10    23s
  67  -4.24759351e+02 -4.24763956e+02  9.89e-04 1.46e-11  1.50e-10    23s
  68  -4.24763059e+02 -4.24764226e+02  8.74e-04 1.46e-11  4.20e-10    24s
  69  -4.24761686e+02 -4.24764217e+02  7.58e-04 1.46e-11  2.33e-10    24s
  70  -4.24759653e+02 -4.24764273e+02  4.96e-04 1.46e-11  3.20e-10    24s
  71  -4.24753538e+02 -4.24764198e+02  1.27e-03 1.46e-11  4.69e-10    25s
  72  -4.24741774e+02 -4.24764085e+02  1.48e-03 2.91e-11  2.34e-10    26s
  73  -4.24775741e+02 -4.24764088e+02  9.53e-04 1.46e-11  2.34e-11    26s
  74  -4.24774513e+02 -4.24764076e+02  9.08e-04 1.46e-11  7.23e-11    26s

Barrier performed 74 iterations in 26.24 seconds
Sub-optimal termination - objective -4.23701586e+02

Solve time: 26.24409217
Barrier iterations: 74
